CPLEX/AMMM/project.6.sol
OBJECTIVE: 0.45
f(1) = 19
f(2) = 10
f(3) = 20
f(4) = 14
f(5) = 7
